NAME : eil101.out.tour 
COMMENT : Optimal tour for eil101.tsp (713.67)
TYPE : TOUR 
DIMENSION : 101
TOUR_SECTION
37
98
92
97
95
13
94
6
89
27
28
101
53
58
40
26
12
76
69
1
50
33
81
9
51
20
66
65
71
35
34
78
79
3
77
68
29
24
25
55
54
80
21
73
72
4
39
67
23
56
75
74
22
41
15
57
2
87
42
43
14
38
44
16
86
17
84
45
46
48
19
47
36
49
64
63
90
32
30
70
10
11
62
31
88
7
82
8
83
18
52
60
5
99
96
59
93
85
61
91
100
37
-1 
EOF 
